presolving:
(round 1, fast)       0 del vars, 75 del conss, 0 add conss, 6825 chg bounds, 0 chg sides, 0 chg coeffs, 0 upgd conss, 0 impls, 3825 clqs
(round 2, fast)       75 del vars, 75 del conss, 0 add conss, 6825 chg bounds, 0 chg sides, 0 chg coeffs, 0 upgd conss, 0 impls, 3825 clqs
(round 3, fast)       75 del vars, 75 del conss, 0 add conss, 6825 chg bounds, 75 chg sides, 0 chg coeffs, 0 upgd conss, 0 impls, 3825 clqs
(round 4, fast)       6825 del vars, 240 del conss, 0 add conss, 6825 chg bounds, 75 chg sides, 0 chg coeffs, 0 upgd conss, 0 impls, 3825 clqs
   (0.1s) running MILP presolver
   (0.1s) MILP presolver found nothing
(round 5, exhaustive) 6825 del vars, 240 del conss, 0 add conss, 6825 chg bounds, 75 chg sides, 0 chg coeffs, 3825 upgd conss, 0 impls, 3825 clqs
   (0.2s) probing: 51/3800 (1.3%) - 0 fixings, 0 aggregations, 0 implications, 0 bound changes
   (0.2s) probing aborted: 50/50 successive totally useless probings
   (0.3s) symmetry computation started: requiring (bin +, int -, cont +), (fixed: bin -, int +, cont -)
   (0.3s) no symmetry present
presolving (6 rounds: 6 fast, 2 medium, 2 exhaustive):
 6825 deleted vars, 240 deleted constraints, 0 added constraints, 6825 tightened bounds, 0 added holes, 75 changed sides, 0 changed coefficients
 0 implications, 3825 cliques
presolved problem has 3800 variables (3800 bin, 0 int, 0 impl, 0 cont) and 3825 constraints
   3825 constraints of type <setppc>
Presolving Time: 0.24

 time | node  | left  |LP iter|LP it/n|mem/heur|mdpt |vars |cons |rows |cuts |sepa|confs|strbr|  dualbound   | primalbound  |  gap   | compl. 
p 0.3s|     1 |     0 |     0 |     - |  clique|   0 |3800 |3825 |3825 |   0 |  0 |   0 |   0 | 0.000000e+00 | 3.637479e+05 |    Inf | unknown
p 0.4s|     1 |     0 |     0 |     - | vbounds|   0 |3800 |3825 |3825 |   0 |  0 |   0 |   0 | 0.000000e+00 | 1.591387e+05 |    Inf | unknown
p 0.5s|     1 |     0 |     0 |     - | vbounds|   0 |3800 |3825 |3825 |   0 |  0 |   0 |   0 | 0.000000e+00 | 1.484729e+05 |    Inf | unknown
  0.9s|     1 |     0 |  1840 |     - |    61M |   0 |3800 |3826 |3825 |   0 |  0 |   1 |   0 | 1.106987e+05 | 1.484729e+05 |  34.12%| unknown
  2.4s|     1 |     0 |  1902 |     - |    66M |   0 |3800 |3826 |3827 |   2 |  1 |   1 |   0 | 1.107831e+05 | 1.484729e+05 |  34.02%| unknown
  3.4s|     1 |     0 |  2111 |     - |    67M |   0 |3800 |3826 |3831 |   6 |  2 |   1 |   0 | 1.109009e+05 | 1.484729e+05 |  33.88%| unknown
  5.6s|     1 |     0 |  2365 |     - |    74M |   0 |3800 |3826 |3834 |   9 |  3 |   1 |   0 | 1.109686e+05 | 1.484729e+05 |  33.80%| unknown
  6.8s|     1 |     0 |  2487 |     - |    77M |   0 |3800 |3826 |3837 |  12 |  4 |   1 |   0 | 1.110340e+05 | 1.484729e+05 |  33.72%| unknown
  7.0s|     1 |     0 |  2575 |     - |    78M |   0 |3800 |3826 |3839 |  14 |  5 |   1 |   0 | 1.110502e+05 | 1.484729e+05 |  33.70%| unknown
  8.8s|     1 |     0 |  2625 |     - |    83M |   0 |3800 |3826 |3840 |  15 |  6 |   1 |   0 | 1.110554e+05 | 1.484729e+05 |  33.69%| unknown
  9.0s|     1 |     0 |  2776 |     - |    84M |   0 |3800 |3826 |3842 |  17 |  7 |   1 |   0 | 1.111167e+05 | 1.484729e+05 |  33.62%| unknown
  9.2s|     1 |     0 |  2813 |     - |    84M |   0 |3800 |3826 |3843 |  18 |  8 |   1 |   0 | 1.111224e+05 | 1.484729e+05 |  33.61%| unknown
 10.8s|     1 |     0 |  2970 |     - |    87M |   0 |3800 |3826 |3846 |  21 |  9 |   1 |   0 | 1.111447e+05 | 1.484729e+05 |  33.59%| unknown
 11.0s|     1 |     0 |  3007 |     - |    88M |   0 |3800 |3826 |3847 |  22 | 10 |   1 |   0 | 1.111493e+05 | 1.484729e+05 |  33.58%| unknown
 11.1s|     1 |     0 |  3056 |     - |    88M |   0 |3800 |3826 |3848 |  23 | 11 |   1 |   0 | 1.111574e+05 | 1.484729e+05 |  33.57%| unknown
 time | node  | left  |LP iter|LP it/n|mem/heur|mdpt |vars |cons |rows |cuts |sepa|confs|strbr|  dualbound   | primalbound  |  gap   | compl. 
 11.2s|     1 |     0 |  3071 |     - |    88M |   0 |3800 |3826 |3849 |  24 | 12 |   1 |   0 | 1.111578e+05 | 1.484729e+05 |  33.57%| unknown
d12.4s|     1 |     0 |  6732 |     - |farkasdi|   0 |3800 |3826 |3849 |   0 | 14 |   1 |   0 | 1.111578e+05 | 1.167312e+05 |   5.01%| unknown
 15.3s|     1 |     0 | 13450 |     - |    90M |   0 |3800 |3840 |3849 |  24 | 14 |  15 |   0 | 1.111578e+05 | 1.167312e+05 |   5.01%| unknown
 15.3s|     1 |     0 | 13450 |     - |    90M |   0 |3800 |3840 |3769 |  24 | 14 |  15 |   0 | 1.111578e+05 | 1.167312e+05 |   5.01%| unknown
 15.5s|     1 |     0 | 13500 |     - |    90M |   0 |3800 |3760 |3771 |  26 | 15 |  15 |   0 | 1.111618e+05 | 1.167312e+05 |   5.01%| unknown
 15.5s|     1 |     0 | 13531 |     - |    90M |   0 |3800 |3760 |3772 |  27 | 16 |  15 |   0 | 1.111633e+05 | 1.167312e+05 |   5.01%| unknown
 20.7s|     1 |     2 | 13531 |     - |    90M |   0 |3800 |3744 |3772 |  27 | 16 |  15 |  19 | 1.117173e+05 | 1.167312e+05 |   4.49%| unknown
(run 1, node 1) restarting after 97 global fixings of integer variables

(restart) converted 27 cuts from the global cut pool into linear constraints

presolving:
(round 1, fast)       97 del vars, 0 del conss, 0 add conss, 0 chg bounds, 0 chg sides, 2 chg coeffs, 0 upgd conss, 0 impls, 3729 clqs
(round 2, exhaustive) 97 del vars, 0 del conss, 0 add conss, 0 chg bounds, 0 chg sides, 2 chg coeffs, 27 upgd conss, 0 impls, 3729 clqs
presolving (3 rounds: 3 fast, 2 medium, 2 exhaustive):
 97 deleted vars, 0 deleted constraints, 0 added constraints, 0 tightened bounds, 0 added holes, 0 changed sides, 2 changed coefficients
 0 implications, 3729 cliques
presolved problem has 3703 variables (3703 bin, 0 int, 0 impl, 0 cont) and 3771 constraints
     27 constraints of type <knapsack>
   3729 constraints of type <setppc>
     15 constraints of type <logicor>
Presolving Time: 0.35
transformed 5/6 original solutions to the transformed problem space

 time | node  | left  |LP iter|LP it/n|mem/heur|mdpt |vars |cons |rows |cuts |sepa|confs|strbr|  dualbound   | primalbound  |  gap   | compl. 
 22.3s|     1 |     0 | 19201 |     - |    95M |   0 |3703 |3771 |3756 |   0 |  0 |  15 |  19 | 1.117173e+05 | 1.167312e+05 |   4.49%| unknown
 22.6s|     1 |     0 | 19224 |     - |    96M |   0 |3703 |3771 |3757 |   1 |  1 |  15 |  19 | 1.117173e+05 | 1.167312e+05 |   4.49%| unknown
 23.0s|     1 |     0 | 19267 |     - |    97M |   0 |3703 |3771 |3758 |   2 |  2 |  15 |  19 | 1.117173e+05 | 1.167312e+05 |   4.49%| unknown
 23.4s|     1 |     0 | 19339 |     - |    98M |   0 |3703 |3771 |3759 |   3 |  3 |  15 |  19 | 1.117173e+05 | 1.167312e+05 |   4.49%| unknown
 23.7s|     1 |     0 | 19378 |     - |    98M |   0 |3703 |3771 |3760 |   4 |  4 |  15 |  19 | 1.117173e+05 | 1.167312e+05 |   4.49%| unknown
 24.0s|     1 |     0 | 19400 |     - |    98M |   0 |3703 |3771 |3761 |   5 |  5 |  15 |  19 | 1.117173e+05 | 1.167312e+05 |   4.49%| unknown
 24.4s|     1 |     0 | 19476 |     - |    99M |   0 |3703 |3771 |3762 |   6 |  6 |  15 |  19 | 1.117173e+05 | 1.167312e+05 |   4.49%| unknown
 24.8s|     1 |     0 | 19513 |     - |    99M |   0 |3703 |3771 |3763 |   7 |  7 |  15 |  19 | 1.117173e+05 | 1.167312e+05 |   4.49%| unknown
 25.1s|     1 |     0 | 19551 |     - |   100M |   0 |3703 |3771 |3764 |   8 |  8 |  15 |  19 | 1.117173e+05 | 1.167312e+05 |   4.49%| unknown
 25.5s|     1 |     0 | 19566 |     - |   100M |   0 |3703 |3771 |3765 |   9 |  9 |  15 |  19 | 1.117173e+05 | 1.167312e+05 |   4.49%| unknown
 25.8s|     1 |     0 | 19591 |     - |   100M |   0 |3703 |3771 |3766 |  10 | 10 |  15 |  19 | 1.117173e+05 | 1.167312e+05 |   4.49%| unknown
 26.1s|     1 |     0 | 19645 |     - |   101M |   0 |3703 |3771 |3767 |  11 | 11 |  15 |  19 | 1.117173e+05 | 1.167312e+05 |   4.49%| unknown
 26.4s|     1 |     0 | 19817 |     - |   101M |   0 |3703 |3771 |3768 |  12 | 12 |  15 |  19 | 1.117173e+05 | 1.167312e+05 |   4.49%| unknown
 26.7s|     1 |     0 | 19940 |     - |   101M |   0 |3703 |3771 |3767 |  13 | 13 |  15 |  19 | 1.117173e+05 | 1.167312e+05 |   4.49%| unknown
 26.9s|     1 |     0 | 20010 |     - |   101M |   0 |3703 |3771 |3768 |  14 | 14 |  15 |  19 | 1.117173e+05 | 1.167312e+05 |   4.49%| unknown
 time | node  | left  |LP iter|LP it/n|mem/heur|mdpt |vars |cons |rows |cuts |sepa|confs|strbr|  dualbound   | primalbound  |  gap   | compl. 
 27.2s|     1 |     0 | 20071 |     - |   101M |   0 |3703 |3771 |3769 |  15 | 15 |  15 |  19 | 1.117173e+05 | 1.167312e+05 |   4.49%| unknown
 27.5s|     1 |     0 | 20102 |     - |   101M |   0 |3703 |3771 |3770 |  16 | 16 |  15 |  19 | 1.117173e+05 | 1.167312e+05 |   4.49%| unknown
 36.6s|     1 |     2 | 26930 |     - |   102M |   0 |3703 |3771 |3770 |  16 | 16 |  15 |  38 | 1.117173e+05 | 1.167312e+05 |   4.49%| unknown
*56.6s|     8 |     7 | 30151 |2553.5 |strongbr|   7 |3703 |3771 |3761 |  16 |  2 |  15 | 165 | 1.118573e+05 | 1.159770e+05 |   3.68%| unknown
*57.5s|    10 |     5 | 31339 |2161.6 |strongbr|   7 |3703 |3782 |3761 |  16 |  2 |  26 | 175 | 1.118573e+05 | 1.159656e+05 |   3.67%|  16.79%
*57.5s|    10 |     5 | 31339 |2161.6 |strongbr|   7 |3703 |3782 |3761 |  16 |  2 |  26 | 176 | 1.118573e+05 | 1.159596e+05 |   3.67%|  16.79%
*64.4s|    14 |     7 | 33741 |1715.6 |strongbr|   7 |3703 |3784 |3761 |  16 |  2 |  28 | 231 | 1.128635e+05 | 1.158467e+05 |   2.64%|  21.31%
*64.4s|    14 |     7 | 33741 |1715.6 |strongbr|   7 |3703 |3784 |3761 |  16 |  2 |  28 | 232 | 1.128635e+05 | 1.156893e+05 |   2.50%|  21.31%
*67.0s|    16 |     7 | 34326 |1537.7 |strongbr|   7 |3703 |3802 |3761 |  16 |  1 |  46 | 270 | 1.128635e+05 | 1.146863e+05 |   1.62%|  24.23%
*68.1s|    30 |     3 | 36406 | 889.4 |strongbr|   8 |3703 |3813 |3761 |  16 |  2 |  57 | 279 | 1.135487e+05 | 1.144292e+05 |   0.78%|  58.55%

SCIP Status        : problem is solved [optimal solution found]
Solving Time (sec) : 69.34
Solving Nodes      : 45 (total of 46 nodes in 2 runs)
Primal Bound       : +1.14429247978240e+05 (14 solutions)
Dual Bound         : +1.14429247978240e+05
Gap                : 0.00 %
Solve Status: optimal
Solve Time: 69.34 seconds
Objective Value: 114429.25
